(set-info :smt-lib-version 2.6)
(set-logic QF_UF)
(set-info :source |
Generated by: Aman Goel (amangoel@umich.edu), Karem A. Sakallah (karem@umich.edu)
Generated on: 2018-04-06

Generated by the tool Averroes 2 (successor of [1]) which implements safety property
verification on hardware systems.

This SMT problem belongs to a set of SMT problems generated by applying Averroes 2
to benchmarks derived from [2-5].

A total of 412 systems (345 from [2], 19 from [3], 26 from [4], 22 from [5]) were
syntactically converted from their original formats (using [6, 7]), and given to 
Averroes 2 to perform property checking with abstraction (wide bit-vectors -> terms, 
wide operators -> UF) using SMT solvers [8, 9].

[1] Lee S., Sakallah K.A. (2014) Unbounded Scalable Verification Based on Approximate
Property-Directed Reachability and Datapath Abstraction. In: Biere A., Bloem R. (eds)
Computer Aided Verification. CAV 2014. Lecture Notes in Computer Science, vol 8559.
Springer, Cham
[2] http://fmv.jku.at/aiger/index.html#beem
[3] http://www.cs.cmu.edu/~modelcheck/vcegar
[4] http://www.cprover.org/hardware/v2c
[5] http://github.com/aman-goel/verilogbench
[6] http://www.clifford.at/yosys
[7] http://github.com/chengyinwu/V3
[8] http://github.com/Z3Prover/z3
[9] http://github.com/SRI-CSL/yices2

id: h_Vending
query-maker: "Yices 2"
query-time: 4.536000 ms
query-class: abstract
query-category: oneshot
query-type: regular
status: sat
|)
(set-info :license "https://creativecommons.org/licenses/by/4.0/")
(set-info :category "industrial")

;
(set-info :status sat)
(declare-sort utt$2 0)
(declare-sort utt$3 0)
(declare-sort utt$4 0)
(declare-fun Add_1_1_1 (Bool Bool ) Bool)
(declare-fun Add_2_2_2 (utt$2 utt$2 ) utt$2)
(declare-fun Add_3_3_3 (utt$3 utt$3 ) utt$3)
(declare-fun Add_4_4_4 (utt$4 utt$4 ) utt$4)
(declare-fun Concat_2_1_1 (Bool Bool ) utt$2)
(declare-fun Concat_4_1_1_1_1 (Bool Bool Bool Bool ) utt$4)
(declare-fun Concat_4_1_2_1 (Bool utt$2 Bool ) utt$4)
(declare-fun Concat_4_3_1 (utt$3 Bool ) utt$4)
(declare-fun Extract_1_3_3_4 (utt$4 ) Bool)
(declare-fun Extract_2_1_0_4 (utt$4 ) utt$2)
(declare-fun Extract_2_2_1_4 (utt$4 ) utt$2)
(declare-fun Extract_2_3_2_4 (utt$4 ) utt$2)
(declare-fun GrEq_1_4_4 (utt$4 utt$4 ) Bool)
(declare-fun Gr_1_2_2 (utt$2 utt$2 ) Bool)
(declare-fun Gr_1_4_4 (utt$4 utt$4 ) Bool)
(declare-fun Le_1_4_4 (utt$4 utt$4 ) Bool)
(declare-fun Sub_2_2_2 (utt$2 utt$2 ) utt$2)
(declare-fun Sub_3_3_3 (utt$3 utt$3 ) utt$3)
(declare-fun Sub_4_4_4 (utt$4 utt$4 ) utt$4)
(declare-fun y$12 () Bool)
(declare-fun y$120 () Bool)
(declare-fun y$14 () Bool)
(declare-fun y$154 () Bool)
(declare-fun y$16 () Bool)
(declare-fun y$183 () Bool)
(declare-fun y$184 () Bool)
(declare-fun y$2 () Bool)
(declare-fun y$213 () Bool)
(declare-fun y$218 () Bool)
(declare-fun y$219 () Bool)
(declare-fun y$252 () Bool)
(declare-fun y$301 () Bool)
(declare-fun y$355 () Bool)
(declare-fun y$392 () Bool)
(declare-fun y$393 () Bool)
(declare-fun y$395 () Bool)
(declare-fun y$397 () Bool)
(declare-fun y$398 () utt$2)
(declare-fun y$4 () Bool)
(declare-fun y$400 () Bool)
(declare-fun y$404 () Bool)
(declare-fun y$406 () Bool)
(declare-fun y$408 () Bool)
(declare-fun y$41 () Bool)
(declare-fun y$414 () Bool)
(declare-fun y$416 () Bool)
(declare-fun y$418 () Bool)
(declare-fun y$429 () Bool)
(declare-fun y$432 () Bool)
(declare-fun y$438 () Bool)
(declare-fun y$44 () Bool)
(declare-fun y$448 () Bool)
(declare-fun y$449 () utt$2)
(declare-fun y$451 () Bool)
(declare-fun y$452 () utt$2)
(declare-fun y$454 () Bool)
(declare-fun y$455 () Bool)
(declare-fun y$46 () Bool)
(declare-fun y$464 () Bool)
(declare-fun y$475 () Bool)
(declare-fun y$476 () Bool)
(declare-fun y$487 () Bool)
(declare-fun y$489 () Bool)
(declare-fun y$490 () utt$2)
(declare-fun y$492 () Bool)
(declare-fun y$495 () Bool)
(declare-fun y$496 () Bool)
(declare-fun y$50 () Bool)
(declare-fun y$501 () Bool)
(declare-fun y$502 () Bool)
(declare-fun y$509 () Bool)
(declare-fun y$51 () Bool)
(declare-fun y$510 () Bool)
(declare-fun y$515 () Bool)
(declare-fun y$516 () Bool)
(declare-fun y$517 () Bool)
(declare-fun y$520 () Bool)
(declare-fun y$525 () Bool)
(declare-fun y$526 () Bool)
(declare-fun y$529 () Bool)
(declare-fun y$53 () Bool)
(declare-fun y$536 () Bool)
(declare-fun y$537 () utt$2)
(declare-fun y$539 () Bool)
(declare-fun y$540 () utt$2)
(declare-fun y$542 () Bool)
(declare-fun y$543 () Bool)
(declare-fun y$552 () Bool)
(declare-fun y$553 () Bool)
(declare-fun y$556 () Bool)
(declare-fun y$575 () Bool)
(declare-fun y$576 () Bool)
(declare-fun y$577 () Bool)
(declare-fun y$578 () Bool)
(declare-fun y$579 () Bool)
(declare-fun y$593 () Bool)
(declare-fun y$603 () Bool)
(declare-fun y$604 () Bool)
(declare-fun y$605 () Bool)
(declare-fun y$606 () Bool)
(declare-fun y$618 () Bool)
(declare-fun y$623 () Bool)
(declare-fun y$624 () Bool)
(declare-fun y$625 () Bool)
(declare-fun y$626 () Bool)
(declare-fun y$637 () Bool)
(declare-fun y$638 () Bool)
(declare-fun y$682 () Bool)
(declare-fun y$7 () Bool)
(declare-fun y$701 () Bool)
(declare-fun y$711 () Bool)
(declare-fun y$712 () Bool)
(declare-fun y$713 () Bool)
(declare-fun y$714 () Bool)
(declare-fun y$721 () Bool)
(declare-fun y$731 () Bool)
(declare-fun y$734 () Bool)
(declare-fun y$735 () Bool)
(declare-fun y$736 () Bool)
(declare-fun y$739 () Bool)
(declare-fun y$740 () Bool)
(declare-fun y$749 () Bool)
(declare-fun y$750 () Bool)
(declare-fun y$757 () Bool)
(declare-fun y$758 () Bool)
(declare-fun y$759 () Bool)
(declare-fun y$760 () Bool)
(declare-fun y$761 () Bool)
(declare-fun y$762 () Bool)
(declare-fun y$763 () Bool)
(declare-fun y$765 () Bool)
(declare-fun y$767 () Bool)
(declare-fun y$771 () Bool)
(declare-fun y$773 () Bool)
(declare-fun y$776 () Bool)
(declare-fun y$777 () Bool)
(declare-fun y$778 () Bool)
(declare-fun y$788 () Bool)
(declare-fun y$790 () Bool)
(declare-fun y$791 () Bool)
(declare-fun y$792 () Bool)
(declare-fun y$793 () Bool)
(declare-fun y$807 () Bool)
(declare-fun y$812 () Bool)
(declare-fun y$813 () Bool)
(declare-fun y$814 () Bool)
(declare-fun y$815 () Bool)
(declare-fun y$822 () Bool)
(declare-fun y$823 () Bool)
(declare-fun y$824 () Bool)
(declare-fun y$829 () Bool)
(declare-fun y$830 () Bool)
(declare-fun y$831 () Bool)
(declare-fun y$832 () Bool)
(declare-fun y$841 () Bool)
(declare-fun y$848 () Bool)
(declare-fun y$849 () Bool)
(declare-fun y$850 () Bool)
(declare-fun y$851 () Bool)
(declare-fun y$857 () Bool)
(declare-fun y$864 () Bool)
(declare-fun y$865 () Bool)
(declare-fun y$866 () Bool)
(declare-fun y$867 () Bool)
(declare-fun y$876 () Bool)
(declare-fun y$880 () Bool)
(declare-fun y$881 () Bool)
(declare-fun y$882 () Bool)
(declare-fun y$883 () Bool)
(declare-fun y$9 () Bool)
(declare-fun y$903 () Bool)
(declare-fun y$93 () Bool)
(declare-fun y$95 () Bool)
(declare-fun y$NONE () Bool)
(declare-fun y$deposit () utt$2)
(declare-fun y$deposit$next () utt$2)
(declare-fun y$deposit$next_rhs () utt$2)
(declare-fun y$deposit$next_rhs_op () utt$2)
(declare-fun y$enable () Bool)
(declare-fun y$enable_op () Bool)
(declare-fun y$n0s1 () Bool)
(declare-fun y$n0s2 () utt$2)
(declare-fun y$n0s3 () utt$3)
(declare-fun y$n0s4 () utt$4)
(declare-fun y$n10s4 () utt$4)
(declare-fun y$n15s4 () utt$4)
(declare-fun y$n1s1 () Bool)
(declare-fun y$n1s2 () utt$2)
(declare-fun y$n1s3 () utt$3)
(declare-fun y$n1s4 () utt$4)
(declare-fun y$n2s2 () utt$2)
(declare-fun y$n2s3 () utt$3)
(declare-fun y$n2s4 () utt$4)
(declare-fun y$n3s2 () utt$2)
(declare-fun y$n4s3 () utt$3)
(declare-fun y$n4s4 () utt$4)
(declare-fun y$n5s4 () utt$4)
(declare-fun y$n6s3 () utt$3)
(declare-fun y$n6s4 () utt$4)
(declare-fun y$n7s4 () utt$4)
(declare-fun y$n8s4 () utt$4)
(declare-fun y$nd () utt$2)
(declare-fun y$prop () Bool)
(declare-fun y$prop$next () Bool)
(declare-fun y$prop0 () Bool)
(declare-fun y$prop0$next () Bool)
(declare-fun y$prop0$next_op () Bool)
(declare-fun y$prop0_op () Bool)
(declare-fun y$s$10 () utt$3)
(declare-fun y$s$100 () Bool)
(declare-fun y$s$100_op () Bool)
(declare-fun y$s$101 () Bool)
(declare-fun y$s$101_op () Bool)
(declare-fun y$s$103 () Bool)
(declare-fun y$s$103_op () Bool)
(declare-fun y$s$104 () Bool)
(declare-fun y$s$104$next () Bool)
(declare-fun y$s$104$next_op () Bool)
(declare-fun y$s$104_op () Bool)
(declare-fun y$s$105 () Bool)
(declare-fun y$s$105$next () Bool)
(declare-fun y$s$105$next_op () Bool)
(declare-fun y$s$105_op () Bool)
(declare-fun y$s$106 () Bool)
(declare-fun y$s$106$next () Bool)
(declare-fun y$s$106$next_op () Bool)
(declare-fun y$s$106_op () Bool)
(declare-fun y$s$107 () Bool)
(declare-fun y$s$107$next () Bool)
(declare-fun y$s$107$next_op () Bool)
(declare-fun y$s$107_op () Bool)
(declare-fun y$s$108 () Bool)
(declare-fun y$s$108$next () Bool)
(declare-fun y$s$108$next_op () Bool)
(declare-fun y$s$108_op () Bool)
(declare-fun y$s$109 () Bool)
(declare-fun y$s$109$next () Bool)
(declare-fun y$s$109$next_op () Bool)
(declare-fun y$s$109_op () Bool)
(declare-fun y$s$10_op () utt$3)
(declare-fun y$s$11 () utt$2)
(declare-fun y$s$110 () Bool)
(declare-fun y$s$110$next () Bool)
(declare-fun y$s$110$next_op () Bool)
(declare-fun y$s$110_op () Bool)
(declare-fun y$s$111 () Bool)
(declare-fun y$s$111$next () Bool)
(declare-fun y$s$111$next_op () Bool)
(declare-fun y$s$111_op () Bool)
(declare-fun y$s$112 () Bool)
(declare-fun y$s$112$next () Bool)
(declare-fun y$s$112$next_op () Bool)
(declare-fun y$s$112_op () Bool)
(declare-fun y$s$11_op () utt$2)
(declare-fun y$s$12 () utt$4)
(declare-fun y$s$122 () Bool)
(declare-fun y$s$122$next () Bool)
(declare-fun y$s$122$next_op () Bool)
(declare-fun y$s$122_op () Bool)
(declare-fun y$s$123 () Bool)
(declare-fun y$s$123$next () Bool)
(declare-fun y$s$123$next_op () Bool)
(declare-fun y$s$123_op () Bool)
(declare-fun y$s$124 () Bool)
(declare-fun y$s$124$next () Bool)
(declare-fun y$s$124$next_op () Bool)
(declare-fun y$s$124_op () Bool)
(declare-fun y$s$125 () Bool)
(declare-fun y$s$125_op () Bool)
(declare-fun y$s$12_op () utt$4)
(declare-fun y$s$13 () utt$4)
(declare-fun y$s$130 () utt$2)
(declare-fun y$s$130_op () utt$2)
(declare-fun y$s$132 () utt$2)
(declare-fun y$s$132_op () utt$2)
(declare-fun y$s$133 () utt$2)
(declare-fun y$s$133_op () utt$2)
(declare-fun y$s$134 () utt$2)
(declare-fun y$s$134_op () utt$2)
(declare-fun y$s$136 () utt$4)
(declare-fun y$s$136_op () utt$4)
(declare-fun y$s$137 () utt$4)
(declare-fun y$s$137_op () utt$4)
(declare-fun y$s$138 () utt$4)
(declare-fun y$s$138_op () utt$4)
(declare-fun y$s$13_op () utt$4)
(declare-fun y$s$14 () utt$4)
(declare-fun y$s$140 () utt$3)
(declare-fun y$s$140_op () utt$3)
(declare-fun y$s$141 () utt$3)
(declare-fun y$s$141_op () utt$3)
(declare-fun y$s$142 () utt$3)
(declare-fun y$s$142_op () utt$3)
(declare-fun y$s$144 () utt$4)
(declare-fun y$s$144_op () utt$4)
(declare-fun y$s$145 () utt$4)
(declare-fun y$s$145_op () utt$4)
(declare-fun y$s$146 () utt$4)
(declare-fun y$s$146_op () utt$4)
(declare-fun y$s$148 () utt$2)
(declare-fun y$s$148_op () utt$2)
(declare-fun y$s$149 () utt$2)
(declare-fun y$s$149_op () utt$2)
(declare-fun y$s$14_op () utt$4)
(declare-fun y$s$15 () utt$2)
(declare-fun y$s$150 () utt$2)
(declare-fun y$s$150_op () utt$2)
(declare-fun y$s$152 () utt$4)
(declare-fun y$s$152_op () utt$4)
(declare-fun y$s$153 () utt$4)
(declare-fun y$s$153_op () utt$4)
(declare-fun y$s$154 () utt$4)
(declare-fun y$s$154_op () utt$4)
(declare-fun y$s$156 () utt$2)
(declare-fun y$s$156_op () utt$2)
(declare-fun y$s$157 () utt$2)
(declare-fun y$s$157_op () utt$2)
(declare-fun y$s$159 () utt$4)
(declare-fun y$s$159_op () utt$4)
(declare-fun y$s$15_op () utt$2)
(declare-fun y$s$16 () Bool)
(declare-fun y$s$160 () utt$4)
(declare-fun y$s$160_op () utt$4)
(declare-fun y$s$162 () utt$2)
(declare-fun y$s$162_op () utt$2)
(declare-fun y$s$163 () utt$2)
(declare-fun y$s$163_op () utt$2)
(declare-fun y$s$165 () utt$3)
(declare-fun y$s$165_op () utt$3)
(declare-fun y$s$166 () utt$3)
(declare-fun y$s$166_op () utt$3)
(declare-fun y$s$168 () utt$4)
(declare-fun y$s$168_op () utt$4)
(declare-fun y$s$169 () utt$4)
(declare-fun y$s$169_op () utt$4)
(declare-fun y$s$16_op () Bool)
(declare-fun y$s$17 () utt$3)
(declare-fun y$s$171 () utt$2)
(declare-fun y$s$171_op () utt$2)
(declare-fun y$s$173 () utt$2)
(declare-fun y$s$173_op () utt$2)
(declare-fun y$s$175 () utt$3)
(declare-fun y$s$175_op () utt$3)
(declare-fun y$s$177 () utt$4)
(declare-fun y$s$177_op () utt$4)
(declare-fun y$s$179 () utt$4)
(declare-fun y$s$179_op () utt$4)
(declare-fun y$s$17_op () utt$3)
(declare-fun y$s$18 () utt$2)
(declare-fun y$s$181 () Bool)
(declare-fun y$s$181_op () Bool)
(declare-fun y$s$182 () Bool)
(declare-fun y$s$182_op () Bool)
(declare-fun y$s$184 () Bool)
(declare-fun y$s$184_op () Bool)
(declare-fun y$s$186 () Bool)
(declare-fun y$s$186_op () Bool)
(declare-fun y$s$188 () Bool)
(declare-fun y$s$188_op () Bool)
(declare-fun y$s$18_op () utt$2)
(declare-fun y$s$19 () utt$4)
(declare-fun y$s$190 () utt$4)
(declare-fun y$s$190_op () utt$4)
(declare-fun y$s$191 () utt$4)
(declare-fun y$s$191_op () utt$4)
(declare-fun y$s$193 () utt$4)
(declare-fun y$s$193_op () utt$4)
(declare-fun y$s$195 () utt$4)
(declare-fun y$s$195_op () utt$4)
(declare-fun y$s$197 () utt$4)
(declare-fun y$s$197_op () utt$4)
(declare-fun y$s$199 () utt$2)
(declare-fun y$s$199_op () utt$2)
(declare-fun y$s$19_op () utt$4)
(declare-fun y$s$20 () utt$4)
(declare-fun y$s$200 () utt$2)
(declare-fun y$s$200_op () utt$2)
(declare-fun y$s$202 () utt$2)
(declare-fun y$s$202_op () utt$2)
(declare-fun y$s$204 () utt$2)
(declare-fun y$s$204_op () utt$2)
(declare-fun y$s$206 () utt$4)
(declare-fun y$s$206_op () utt$4)
(declare-fun y$s$207 () utt$4)
(declare-fun y$s$207_op () utt$4)
(declare-fun y$s$209 () utt$4)
(declare-fun y$s$209_op () utt$4)
(declare-fun y$s$20_op () utt$4)
(declare-fun y$s$21 () utt$4)
(declare-fun y$s$211 () utt$4)
(declare-fun y$s$211_op () utt$4)
(declare-fun y$s$213 () utt$3)
(declare-fun y$s$213_op () utt$3)
(declare-fun y$s$214 () utt$3)
(declare-fun y$s$214_op () utt$3)
(declare-fun y$s$216 () utt$3)
(declare-fun y$s$216_op () utt$3)
(declare-fun y$s$218 () utt$4)
(declare-fun y$s$218_op () utt$4)
(declare-fun y$s$219 () utt$4)
(declare-fun y$s$219_op () utt$4)
(declare-fun y$s$21_op () utt$4)
(declare-fun y$s$22 () utt$2)
(declare-fun y$s$221 () utt$4)
(declare-fun y$s$221_op () utt$4)
(declare-fun y$s$223 () utt$3)
(declare-fun y$s$223_op () utt$3)
(declare-fun y$s$225 () utt$3)
(declare-fun y$s$225_op () utt$3)
(declare-fun y$s$227 () utt$4)
(declare-fun y$s$227_op () utt$4)
(declare-fun y$s$229 () utt$4)
(declare-fun y$s$229_op () utt$4)
(declare-fun y$s$22_op () utt$2)
(declare-fun y$s$23 () Bool)
(declare-fun y$s$231 () Bool)
(declare-fun y$s$231_op () Bool)
(declare-fun y$s$233 () Bool)
(declare-fun y$s$233_op () Bool)
(declare-fun y$s$235 () Bool)
(declare-fun y$s$235_op () Bool)
(declare-fun y$s$237 () Bool)
(declare-fun y$s$237_op () Bool)
(declare-fun y$s$239 () utt$2)
(declare-fun y$s$239_op () utt$2)
(declare-fun y$s$23_op () Bool)
(declare-fun y$s$24 () utt$3)
(declare-fun y$s$241 () utt$2)
(declare-fun y$s$241_op () utt$2)
(declare-fun y$s$243 () utt$2)
(declare-fun y$s$243_op () utt$2)
(declare-fun y$s$245 () utt$4)
(declare-fun y$s$245_op () utt$4)
(declare-fun y$s$247 () utt$4)
(declare-fun y$s$247_op () utt$4)
(declare-fun y$s$249 () utt$4)
(declare-fun y$s$249_op () utt$4)
(declare-fun y$s$24_op () utt$3)
(declare-fun y$s$25 () utt$2)
(declare-fun y$s$251 () utt$4)
(declare-fun y$s$251_op () utt$4)
(declare-fun y$s$253 () utt$4)
(declare-fun y$s$253_op () utt$4)
(declare-fun y$s$255 () utt$4)
(declare-fun y$s$255_op () utt$4)
(declare-fun y$s$257 () utt$4)
(declare-fun y$s$257_op () utt$4)
(declare-fun y$s$259 () utt$2)
(declare-fun y$s$259_op () utt$2)
(declare-fun y$s$25_op () utt$2)
(declare-fun y$s$26 () utt$4)
(declare-fun y$s$261 () Bool)
(declare-fun y$s$261_op () Bool)
(declare-fun y$s$263 () utt$2)
(declare-fun y$s$263_op () utt$2)
(declare-fun y$s$265 () utt$3)
(declare-fun y$s$265_op () utt$3)
(declare-fun y$s$267 () utt$4)
(declare-fun y$s$267_op () utt$4)
(declare-fun y$s$269 () utt$4)
(declare-fun y$s$269_op () utt$4)
(declare-fun y$s$26_op () utt$4)
(declare-fun y$s$27 () utt$4)
(declare-fun y$s$271 () utt$4)
(declare-fun y$s$271_op () utt$4)
(declare-fun y$s$27_op () utt$4)
(declare-fun y$s$28 () utt$4)
(declare-fun y$s$28_op () utt$4)
(declare-fun y$s$29 () utt$2)
(declare-fun y$s$297 () utt$4)
(declare-fun y$s$297_op () utt$4)
(declare-fun y$s$298 () utt$3)
(declare-fun y$s$298_op () utt$3)
(declare-fun y$s$299 () utt$2)
(declare-fun y$s$299_op () utt$2)
(declare-fun y$s$29_op () utt$2)
(declare-fun y$s$30 () utt$3)
(declare-fun y$s$300 () utt$4)
(declare-fun y$s$300_op () utt$4)
(declare-fun y$s$30_op () utt$3)
(declare-fun y$s$31 () utt$2)
(declare-fun y$s$31_op () utt$2)
(declare-fun y$s$32 () utt$4)
(declare-fun y$s$32_op () utt$4)
(declare-fun y$s$33 () utt$4)
(declare-fun y$s$33_op () utt$4)
(declare-fun y$s$34 () utt$2)
(declare-fun y$s$34_op () utt$2)
(declare-fun y$s$35 () utt$3)
(declare-fun y$s$35_op () utt$3)
(declare-fun y$s$36 () utt$2)
(declare-fun y$s$36_op () utt$2)
(declare-fun y$s$37 () utt$4)
(declare-fun y$s$37_op () utt$4)
(declare-fun y$s$38 () utt$4)
(declare-fun y$s$38_op () utt$4)
(declare-fun y$s$39 () utt$2)
(declare-fun y$s$39_op () utt$2)
(declare-fun y$s$40 () utt$3)
(declare-fun y$s$40_op () utt$3)
(declare-fun y$s$41 () utt$4)
(declare-fun y$s$41_op () utt$4)
(declare-fun y$s$42 () utt$4)
(declare-fun y$s$42_op () utt$4)
(declare-fun y$s$43 () utt$2)
(declare-fun y$s$43_op () utt$2)
(declare-fun y$s$44 () utt$4)
(declare-fun y$s$44_op () utt$4)
(declare-fun y$s$45 () utt$4)
(declare-fun y$s$45_op () utt$4)
(declare-fun y$s$46 () utt$4)
(declare-fun y$s$46$next () utt$4)
(declare-fun y$s$46$next_op () utt$4)
(declare-fun y$s$46_op () utt$4)
(declare-fun y$s$47 () utt$4)
(declare-fun y$s$47_op () utt$4)
(declare-fun y$s$48 () utt$3)
(declare-fun y$s$48_op () utt$3)
(declare-fun y$s$49 () utt$4)
(declare-fun y$s$49_op () utt$4)
(declare-fun y$s$50 () utt$2)
(declare-fun y$s$50$next () utt$2)
(declare-fun y$s$50$next_op () utt$2)
(declare-fun y$s$50_op () utt$2)
(declare-fun y$s$51 () utt$4)
(declare-fun y$s$51_op () utt$4)
(declare-fun y$s$52 () Bool)
(declare-fun y$s$52_op () Bool)
(declare-fun y$s$53 () Bool)
(declare-fun y$s$53_op () Bool)
(declare-fun y$s$60 () Bool)
(declare-fun y$s$60_op () Bool)
(declare-fun y$s$61 () Bool)
(declare-fun y$s$61_op () Bool)
(declare-fun y$s$62 () utt$2)
(declare-fun y$s$62_op () utt$2)
(declare-fun y$s$63 () utt$2)
(declare-fun y$s$63_op () utt$2)
(declare-fun y$s$64 () utt$3)
(declare-fun y$s$64_op () utt$3)
(declare-fun y$s$65 () utt$3)
(declare-fun y$s$65_op () utt$3)
(declare-fun y$s$67 () utt$4)
(declare-fun y$s$67_op () utt$4)
(declare-fun y$s$68 () utt$4)
(declare-fun y$s$68_op () utt$4)
(declare-fun y$s$69 () utt$4)
(declare-fun y$s$69_op () utt$4)
(declare-fun y$s$70 () utt$2)
(declare-fun y$s$70_op () utt$2)
(declare-fun y$s$71 () utt$2)
(declare-fun y$s$71_op () utt$2)
(declare-fun y$s$73 () utt$4)
(declare-fun y$s$73_op () utt$4)
(declare-fun y$s$8 () utt$2)
(declare-fun y$s$89 () Bool)
(declare-fun y$s$89$next () Bool)
(declare-fun y$s$8_op () utt$2)
(declare-fun y$s$9 () Bool)
(declare-fun y$s$9_op () Bool)
(declare-fun y$v.DIME () Bool)
(declare-fun y$v.DIME$next () Bool)
(declare-fun y$v.NICKEL () Bool)
(declare-fun y$v.QUARTER () Bool)
(declare-fun y$v.l10 () utt$2)
(declare-fun y$v.l10$next () utt$2)
(declare-fun y$v.l10$next_rhs () utt$2)
(declare-fun y$v.l10$next_rhs_op () utt$2)
(declare-fun y$v.l25 () Bool)
(declare-fun y$v.l25$next () Bool)
(declare-fun y$v.l25$next_rhs () Bool)
(declare-fun y$v.l25$next_rhs_op () Bool)
(declare-fun y$v.l5 () utt$3)
(declare-fun y$v.l5$next () utt$3)
(declare-fun y$v.l5$next_rhs () utt$3)
(declare-fun y$v.l5$next_rhs_op () utt$3)
(declare-fun y$v.prop_1 () Bool)
(declare-fun y$v.prop_1$next () Bool)
(declare-fun y$v.prop_1$next_op () Bool)
(declare-fun y$v.prop_1_op () Bool)
(declare-fun y$v.prop_2 () Bool)
(declare-fun y$v.prop_2$next () Bool)
(declare-fun y$v.prop_2$next_op () Bool)
(declare-fun y$v.prop_2_op () Bool)
(declare-fun y$v.prop_3 () Bool)
(declare-fun y$v.prop_3$next () Bool)
(declare-fun y$v.prop_3$next_op () Bool)
(declare-fun y$v.prop_3_op () Bool)
(declare-fun y$v.prop_4 () Bool)
(declare-fun y$v.prop_4$next () Bool)
(declare-fun y$v.prop_4$next_op () Bool)
(declare-fun y$v.prop_4_op () Bool)
(declare-fun y$v.prop_5 () Bool)
(declare-fun y$v.prop_5$next () Bool)
(declare-fun y$v.prop_5$next_op () Bool)
(declare-fun y$v.prop_5_op () Bool)
(declare-fun y$v.prop_6 () Bool)
(declare-fun y$v.prop_6$next () Bool)
(declare-fun y$v.prop_6$next_op () Bool)
(declare-fun y$v.prop_6_op () Bool)
(declare-fun y$v.state () utt$2)
(declare-fun y$v.state$next () utt$2)
(declare-fun y$v.state$next_rhs () utt$2)
(declare-fun y$v.state$next_rhs_op () utt$2)
(declare-fun y$v.t10 () utt$4)
(declare-fun y$v.t10$next () utt$4)
(declare-fun y$v.t10$next_rhs () utt$4)
(declare-fun y$v.t10$next_rhs_op () utt$4)
(declare-fun y$v.t25 () utt$4)
(declare-fun y$v.t25$next () utt$4)
(declare-fun y$v.t25$next_rhs () utt$4)
(declare-fun y$v.t25$next_rhs_op () utt$4)
(declare-fun y$v.t5 () utt$4)
(declare-fun y$v.t5$next () utt$4)
(declare-fun y$v.t5$next_rhs () utt$4)
(declare-fun y$v.t5$next_rhs_op () utt$4)
(declare-fun y$v.total () utt$4)
(declare-fun y$v.total$next () utt$4)
(declare-fun y$v.total$next_op () utt$4)
(declare-fun y$v.total_op () utt$4)
(declare-fun y$w$1 () utt$2)
(declare-fun y$w$1$next () utt$2)
(declare-fun y$w$10 () utt$2)
(declare-fun y$w$10_op () utt$2)
(declare-fun y$w$2 () utt$2)
(declare-fun y$w$2$next () utt$2)
(declare-fun y$w$3 () utt$2)
(declare-fun y$w$3$next () utt$2)
(declare-fun y$w$4 () utt$4)
(declare-fun y$w$4$next () utt$4)
(declare-fun y$w$4$next_op () utt$4)
(declare-fun y$w$4_op () utt$4)
(declare-fun y$w$5 () utt$4)
(declare-fun y$w$5$next () utt$4)
(declare-fun y$w$5$next_op () utt$4)
(declare-fun y$w$5_op () utt$4)
(declare-fun y$w$6 () utt$4)
(declare-fun y$w$6$next () utt$4)
(declare-fun y$w$6$next_op () utt$4)
(declare-fun y$w$6_op () utt$4)
(declare-fun y$w$7 () utt$2)
(declare-fun y$w$7_op () utt$2)
(declare-fun y$w$8 () utt$2)
(declare-fun y$w$8_op () utt$2)
(declare-fun y$w$9 () utt$2)
(declare-fun y$w$9$next () utt$2)
(declare-fun y$w$9$next_op () utt$2)
(declare-fun y$w$9_op () utt$2)
(assert (distinct y$n0s2 y$n3s2 y$n2s2 y$n1s2))
(assert (distinct y$n0s3 y$n1s3 y$n4s3 y$n6s3 y$n2s3))
(assert (distinct y$n0s4 y$n5s4 y$n6s4 y$n1s4 y$n15s4 y$n8s4 y$n7s4 y$n10s4 y$n4s4 y$n2s4))
(assert (= y$2 (= y$n0s2 y$v.l10)))
(assert (= y$v.l25 (not y$4)))
(assert (= y$7 (= y$n0s3 y$v.l5)))
(assert (= y$9 (= y$n0s2 y$v.state)))
(assert (= y$12 (= y$n0s4 y$v.t10)))
(assert (= y$14 (= y$n0s4 y$v.t25)))
(assert (= y$16 (= y$n0s4 y$v.t5)))
(assert (= y$w$4_op (Concat_4_3_1 y$v.l5 false)))
(assert (= y$w$5_op (Concat_4_1_2_1 false y$v.l10 false)))
(assert (= y$s$46_op (Add_4_4_4 y$w$4_op y$w$5_op)))
(assert (= y$w$6_op (Concat_4_1_1_1_1 y$v.l25 false y$v.l25 false)))
(assert (= y$v.total_op (Add_4_4_4 y$s$46_op y$w$6_op)))
(assert (= y$s$125_op (Le_1_4_4 y$v.total_op y$n5s4)))
(assert (= y$enable_op (and y$9 y$s$125_op)))
(assert (= y$w$7_op (Concat_2_1_1 y$NONE false)))
(assert (= y$deposit$next_rhs_op (ite y$enable_op y$nd y$w$7_op)))
(assert (= y$41 (= y$deposit$next y$deposit$next_rhs_op)))
(assert (= (= y$n3s2 y$v.state) y$44))
(assert (= (= y$n2s2 y$v.state) y$46))
(assert (= y$s$53_op (or y$44 y$46)))
(assert (= y$50 (= y$n1s2 y$v.state)))
(assert (= y$51 (= y$n5s4 y$v.total_op)))
(assert (= y$53 (= y$n6s4 y$v.total_op)))
(assert (= y$s$101_op (Gr_1_4_4 y$v.t5 y$n0s4)))
(assert (= y$s$297_op (Sub_4_4_4 y$v.t5 y$n1s4)))
(assert (= y$s$152_op (ite y$s$101_op y$s$297_op y$v.t5)))
(assert (= y$s$153_op (ite y$53 y$s$152_op y$n0s4)))
(assert (= y$s$154_op (ite y$51 y$n0s4 y$s$153_op)))
(assert (= y$s$42_op (ite y$50 y$s$154_op y$n0s4)))
(assert (= y$s$103_op (Gr_1_2_2 y$v.l10 y$n0s2)))
(assert (= y$s$144_op (ite y$s$103_op y$v.t5 y$s$297_op)))
(assert (= y$s$145_op (ite y$53 y$n0s4 y$s$144_op)))
(assert (= y$s$146_op (ite y$51 y$n0s4 y$s$145_op)))
(assert (= y$s$45_op (ite y$50 y$s$146_op y$n0s4)))
(assert (= y$s$159_op (ite y$53 y$s$42_op y$s$45_op)))
(assert (= y$s$160_op (ite y$51 y$n0s4 y$s$159_op)))
(assert (= y$s$38_op (ite y$50 y$s$160_op y$n0s4)))
(assert (= y$s$179_op (ite y$51 y$v.t5 y$s$38_op)))
(assert (= y$s$33_op (ite y$50 y$s$179_op y$n0s4)))
(assert (= y$s$100_op (GrEq_1_4_4 y$v.total_op y$n5s4)))
(assert (= y$w$8_op (Concat_2_1_1 y$v.NICKEL false)))
(assert (= y$93 (= y$deposit y$w$8_op)))
(assert (= y$95 (= y$n15s4 y$v.t5)))
(assert (= y$s$47_op (Add_4_4_4 y$v.t5 y$n1s4)))
(assert (= y$s$218_op (ite y$95 y$v.t5 y$s$47_op)))
(assert (= y$s$219_op (ite y$93 y$s$218_op y$n0s4)))
(assert (= y$s$221_op (ite y$s$100_op y$n0s4 y$s$219_op)))
(assert (= y$s$28_op (ite y$9 y$s$221_op y$n0s4)))
(assert (= y$s$227_op (ite y$93 y$s$28_op y$v.t5)))
(assert (= y$s$229_op (ite y$s$100_op y$n0s4 y$s$227_op)))
(assert (= y$s$21_op (ite y$9 y$s$229_op y$n0s4)))
(assert (= y$s$271_op (ite y$s$100_op y$v.t5 y$s$21_op)))
(assert (= y$s$14_op (ite y$9 y$s$271_op y$n0s4)))
(assert (= y$s$73_op (ite y$50 y$s$33_op y$s$14_op)))
(assert (= y$v.t5$next_rhs_op (ite y$s$53_op y$v.t5 y$s$73_op)))
(assert (= y$120 (= y$v.t5$next y$v.t5$next_rhs_op)))
(assert (= y$s$130_op (ite y$s$103_op y$v.state y$n0s2)))
(assert (= y$s$36_op (ite y$46 y$s$130_op y$n0s2)))
(assert (= y$s$70_op (ite y$46 y$s$36_op y$n0s2)))
(assert (= y$s$148_op (ite y$s$101_op y$n3s2 y$n2s2)))
(assert (= y$s$149_op (ite y$53 y$s$148_op y$n0s2)))
(assert (= y$s$150_op (ite y$51 y$n0s2 y$s$149_op)))
(assert (= y$s$31_op (ite y$50 y$s$150_op y$n0s2)))
(assert (= y$s$156_op (ite y$53 y$s$31_op y$v.state)))
(assert (= y$s$157_op (ite y$51 y$n0s2 y$s$156_op)))
(assert (= y$s$25_op (ite y$50 y$s$157_op y$n0s2)))
(assert (= y$s$171_op (ite y$51 y$n3s2 y$s$25_op)))
(assert (= y$s$18_op (ite y$50 y$s$171_op y$n0s2)))
(assert (= y$s$259_op (ite y$s$100_op y$n1s2 y$v.state)))
(assert (= y$s$11_op (ite y$9 y$s$259_op y$n0s2)))
(assert (= y$s$71_op (ite y$50 y$s$18_op y$s$11_op)))
(assert (= y$v.state$next_rhs_op (ite y$s$53_op y$s$70_op y$s$71_op)))
(assert (= y$154 (= y$v.state$next y$v.state$next_rhs_op)))
(assert (= y$s$300_op (Sub_4_4_4 y$v.t10 y$n1s4)))
(assert (= y$s$136_op (ite y$s$103_op y$s$300_op y$v.t10)))
(assert (= y$s$44_op (ite y$46 y$s$136_op y$n0s4)))
(assert (= y$s$68_op (ite y$46 y$s$44_op y$v.t10)))
(assert (= y$s$137_op (ite y$53 y$n0s4 y$s$136_op)))
(assert (= y$s$138_op (ite y$51 y$n0s4 y$s$137_op)))
(assert (= y$s$41_op (ite y$50 y$s$138_op y$n0s4)))
(assert (= y$s$168_op (ite y$53 y$v.t10 y$s$41_op)))
(assert (= y$s$169_op (ite y$51 y$n0s4 y$s$168_op)))
(assert (= y$s$37_op (ite y$50 y$s$169_op y$n0s4)))
(assert (= y$s$177_op (ite y$51 y$v.t10 y$s$37_op)))
(assert (= y$s$32_op (ite y$50 y$s$177_op y$n0s4)))
(assert (= y$w$9_op (Concat_2_1_1 y$v.DIME false)))
(assert (= y$183 (= y$deposit y$w$9_op)))
(assert (= y$184 (= y$n15s4 y$v.t10)))
(assert (= y$s$49_op (Add_4_4_4 y$v.t10 y$n1s4)))
(assert (= y$s$206_op (ite y$184 y$v.t10 y$s$49_op)))
(assert (= y$s$207_op (ite y$183 y$s$206_op y$n0s4)))
(assert (= y$s$209_op (ite y$93 y$n0s4 y$s$207_op)))
(assert (= y$s$211_op (ite y$s$100_op y$n0s4 y$s$209_op)))
(assert (= y$s$26_op (ite y$9 y$s$211_op y$n0s4)))
(assert (= y$s$253_op (ite y$183 y$s$26_op y$v.t10)))
(assert (= y$s$255_op (ite y$93 y$v.t10 y$s$253_op)))
(assert (= y$s$257_op (ite y$s$100_op y$n0s4 y$s$255_op)))
(assert (= y$s$19_op (ite y$9 y$s$257_op y$n0s4)))
(assert (= y$s$269_op (ite y$s$100_op y$v.t10 y$s$19_op)))
(assert (= y$s$12_op (ite y$9 y$s$269_op y$n0s4)))
(assert (= y$s$69_op (ite y$50 y$s$32_op y$s$12_op)))
(assert (= y$v.t10$next_rhs_op (ite y$s$53_op y$s$68_op y$s$69_op)))
(assert (= y$213 (= y$v.t10$next y$v.t10$next_rhs_op)))
(assert (= y$w$10_op (Concat_2_1_1 y$v.QUARTER false)))
(assert (= y$218 (= y$deposit y$w$10_op)))
(assert (= y$219 (= y$n15s4 y$v.t25)))
(assert (= y$s$51_op (Add_4_4_4 y$v.t25 y$n1s4)))
(assert (= y$s$190_op (ite y$219 y$v.t25 y$s$51_op)))
(assert (= y$s$191_op (ite y$218 y$s$190_op y$n0s4)))
(assert (= y$s$193_op (ite y$183 y$n0s4 y$s$191_op)))
(assert (= y$s$195_op (ite y$93 y$n0s4 y$s$193_op)))
(assert (= y$s$197_op (ite y$s$100_op y$n0s4 y$s$195_op)))
(assert (= y$s$27_op (ite y$9 y$s$197_op y$n0s4)))
(assert (= y$s$245_op (ite y$218 y$s$27_op y$v.t25)))
(assert (= y$s$247_op (ite y$183 y$v.t25 y$s$245_op)))
(assert (= y$s$249_op (ite y$93 y$v.t25 y$s$247_op)))
(assert (= y$s$251_op (ite y$s$100_op y$n0s4 y$s$249_op)))
(assert (= y$s$20_op (ite y$9 y$s$251_op y$n0s4)))
(assert (= y$s$267_op (ite y$s$100_op y$v.t25 y$s$20_op)))
(assert (= y$s$13_op (ite y$9 y$s$267_op y$n0s4)))
(assert (= y$s$67_op (ite y$50 y$v.t25 y$s$13_op)))
(assert (= y$v.t25$next_rhs_op (ite y$s$53_op y$v.t25 y$s$67_op)))
(assert (= y$252 (= y$v.t25$next y$v.t25$next_rhs_op)))
(assert (= y$s$64_op (ite y$46 y$v.l5 y$n0s3)))
(assert (= y$s$298_op (Sub_3_3_3 y$v.l5 y$n1s3)))
(assert (= y$s$140_op (ite y$s$103_op y$v.l5 y$s$298_op)))
(assert (= y$s$141_op (ite y$53 y$n0s3 y$s$140_op)))
(assert (= y$s$142_op (ite y$51 y$n0s3 y$s$141_op)))
(assert (= y$s$40_op (ite y$50 y$s$142_op y$n0s3)))
(assert (= y$s$165_op (ite y$53 y$v.l5 y$s$40_op)))
(assert (= y$s$166_op (ite y$51 y$n0s3 y$s$165_op)))
(assert (= y$s$35_op (ite y$50 y$s$166_op y$n0s3)))
(assert (= y$s$175_op (ite y$51 y$v.l5 y$s$35_op)))
(assert (= y$s$30_op (ite y$50 y$s$175_op y$n0s3)))
(assert (= y$s$48_op (Add_3_3_3 y$v.l5 y$n1s3)))
(assert (= y$s$213_op (ite y$95 y$v.l5 y$s$48_op)))
(assert (= y$s$214_op (ite y$93 y$s$213_op y$n0s3)))
(assert (= y$s$216_op (ite y$s$100_op y$n0s3 y$s$214_op)))
(assert (= y$s$24_op (ite y$9 y$s$216_op y$n0s3)))
(assert (= y$s$223_op (ite y$93 y$s$24_op y$v.l5)))
(assert (= y$s$225_op (ite y$s$100_op y$n0s3 y$s$223_op)))
(assert (= y$s$17_op (ite y$9 y$s$225_op y$n0s3)))
(assert (= y$s$265_op (ite y$s$100_op y$v.l5 y$s$17_op)))
(assert (= y$s$10_op (ite y$9 y$s$265_op y$n0s3)))
(assert (= y$s$65_op (ite y$50 y$s$30_op y$s$10_op)))
(assert (= y$v.l5$next_rhs_op (ite y$s$53_op y$s$64_op y$s$65_op)))
(assert (= y$301 (= y$v.l5$next y$v.l5$next_rhs_op)))
(assert (= y$s$299_op (Sub_2_2_2 y$v.l10 y$n1s2)))
(assert (= y$s$132_op (ite y$s$103_op y$s$299_op y$v.l10)))
(assert (= y$s$43_op (ite y$46 y$s$132_op y$n0s2)))
(assert (= y$s$62_op (ite y$46 y$s$43_op y$n0s2)))
(assert (= y$s$133_op (ite y$53 y$n0s2 y$s$132_op)))
(assert (= y$s$134_op (ite y$51 y$n0s2 y$s$133_op)))
(assert (= y$s$39_op (ite y$50 y$s$134_op y$n0s2)))
(assert (= y$s$162_op (ite y$53 y$v.l10 y$s$39_op)))
(assert (= y$s$163_op (ite y$51 y$n0s2 y$s$162_op)))
(assert (= y$s$34_op (ite y$50 y$s$163_op y$n0s2)))
(assert (= y$s$173_op (ite y$51 y$v.l10 y$s$34_op)))
(assert (= y$s$29_op (ite y$50 y$s$173_op y$n0s2)))
(assert (= y$s$50_op (Add_2_2_2 y$v.l10 y$n1s2)))
(assert (= y$s$199_op (ite y$184 y$v.l10 y$s$50_op)))
(assert (= y$s$200_op (ite y$183 y$s$199_op y$n0s2)))
(assert (= y$s$202_op (ite y$93 y$n0s2 y$s$200_op)))
(assert (= y$s$204_op (ite y$s$100_op y$n0s2 y$s$202_op)))
(assert (= y$s$22_op (ite y$9 y$s$204_op y$n0s2)))
(assert (= y$s$239_op (ite y$183 y$s$22_op y$v.l10)))
(assert (= y$s$241_op (ite y$93 y$v.l10 y$s$239_op)))
(assert (= y$s$243_op (ite y$s$100_op y$n0s2 y$s$241_op)))
(assert (= y$s$15_op (ite y$9 y$s$243_op y$n0s2)))
(assert (= y$s$263_op (ite y$s$100_op y$v.l10 y$s$15_op)))
(assert (= y$s$8_op (ite y$9 y$s$263_op y$n0s2)))
(assert (= y$s$63_op (ite y$50 y$s$29_op y$s$8_op)))
(assert (= y$v.l10$next_rhs_op (ite y$s$53_op y$s$62_op y$s$63_op)))
(assert (= y$355 (= y$v.l10$next y$v.l10$next_rhs_op)))
(assert (= y$s$60_op (and y$v.l25 y$46)))
(assert (= y$s$52_op (Add_1_1_1 y$v.l25 true)))
(assert (= y$s$181_op (ite y$219 y$v.l25 y$s$52_op)))
(assert (= y$s$182_op (and y$218 y$s$181_op)))
(assert (= y$s$184_op (and (not y$183) y$s$182_op)))
(assert (= y$s$186_op (and (not y$93) y$s$184_op)))
(assert (= y$s$188_op (and (not y$s$100_op) y$s$186_op)))
(assert (= y$s$23_op (and y$9 y$s$188_op)))
(assert (= y$s$231_op (ite y$218 y$s$23_op y$v.l25)))
(assert (= y$s$233_op (ite y$183 y$v.l25 y$s$231_op)))
(assert (= y$s$235_op (ite y$93 y$v.l25 y$s$233_op)))
(assert (= y$s$237_op (and (not y$s$100_op) y$s$235_op)))
(assert (= y$s$16_op (and y$9 y$s$237_op)))
(assert (= y$s$261_op (ite y$s$100_op y$v.l25 y$s$16_op)))
(assert (= y$s$9_op (and y$9 y$s$261_op)))
(assert (= y$s$61_op (ite y$50 y$v.l25 y$s$9_op)))
(assert (= y$v.l25$next_rhs_op (ite y$s$53_op y$s$60_op y$s$61_op)))
(assert (= y$392 (= y$v.l25$next y$v.l25$next_rhs_op)))
(assert (= y$393 (and y$41 y$120 y$154 y$213 y$252 y$301 y$355 y$392)))
(assert (= y$w$4$next_op (Concat_4_3_1 y$v.l5$next false)))
(assert (= y$w$5$next_op (Concat_4_1_2_1 false y$v.l10$next false)))
(assert (= y$s$46$next_op (Add_4_4_4 y$w$4$next_op y$w$5$next_op)))
(assert (= y$w$6$next_op (Concat_4_1_1_1_1 y$v.l25$next false y$v.l25$next false)))
(assert (= y$v.total$next_op (Add_4_4_4 y$s$46$next_op y$w$6$next_op)))
(assert (= y$487 (Extract_1_3_3_4 y$v.total$next_op)))
(assert (= y$487 (not y$489)))
(assert (= y$490 (Extract_2_2_1_4 y$v.total$next_op)))
(assert (= y$492 (= y$n0s2 y$490)))
(assert (= y$v.prop_1$next_op (or y$489 y$492)))
(assert (= (not (= y$n8s4 y$v.total$next_op)) y$495))
(assert (= (not (= y$n0s3 y$v.l5$next)) y$496))
(assert (= y$v.prop_2$next_op (or y$495 y$496)))
(assert (= y$s$109$next_op (and y$v.prop_1$next_op y$v.prop_2$next_op)))
(assert (= (not (= y$n7s4 y$v.total$next_op)) y$501))
(assert (= (not (= y$n0s2 y$v.l10$next)) y$502))
(assert (= y$s$122$next_op (or y$496 y$502)))
(assert (= y$v.prop_3$next_op (or y$501 y$s$122$next_op)))
(assert (= y$s$110$next_op (and y$s$109$next_op y$v.prop_3$next_op)))
(assert (= y$509 (= y$n1s2 y$v.state$next)))
(assert (= y$510 (= y$n7s4 y$v.total$next_op)))
(assert (= y$s$104$next_op (and y$510 y$509)))
(assert (= y$s$123$next_op (or y$487 y$s$104$next_op)))
(assert (= y$s$123$next_op (not y$515)))
(assert (= y$516 (= y$n0s3 y$v.l5$next)))
(assert (= y$517 (= y$n0s2 y$v.l10$next)))
(assert (= y$s$105$next_op (and y$516 y$517)))
(assert (= y$s$105$next_op (not y$520)))
(assert (= y$v.prop_4$next_op (or y$515 y$520)))
(assert (= y$s$111$next_op (and y$s$110$next_op y$v.prop_4$next_op)))
(assert (= y$525 (not (= y$n2s2 y$v.state$next))))
(assert (= y$v.l25$next (not y$526)))
(assert (= y$s$106$next_op (and y$516 y$526)))
(assert (= y$529 (= y$n0s4 y$v.t5$next)))
(assert (= y$s$107$next_op (and y$s$106$next_op y$529)))
(assert (= y$v.prop_5$next_op (or y$525 y$s$107$next_op)))
(assert (= y$s$112$next_op (and y$s$111$next_op y$v.prop_5$next_op)))
(assert (= y$536 (not (= y$n3s2 y$v.state$next))))
(assert (= y$537 (Extract_2_3_2_4 y$v.total$next_op)))
(assert (= y$539 (= y$n1s2 y$537)))
(assert (= y$540 (Extract_2_1_0_4 y$v.total$next_op)))
(assert (= y$542 (= y$n1s2 y$540)))
(assert (= y$543 (= y$n2s2 y$540)))
(assert (= y$s$124$next_op (or y$542 y$543)))
(assert (= y$s$108$next_op (and y$539 y$s$124$next_op)))
(assert (= y$v.prop_6$next_op (or y$536 y$s$108$next_op)))
(assert (= y$prop0$next_op (and y$s$112$next_op y$v.prop_6$next_op)))
(assert (= y$552 (= y$prop$next y$prop0$next_op)))
(assert (= y$prop$next (not y$476)))
(assert (= y$576 (= y$n8s4 y$v.total$next_op)))
(assert (= y$577 (and y$576 y$516)))
(assert (= y$577 (not y$579)))
(assert (= (= y$n8s4 y$v.total_op) y$404))
(assert (= y$575 (and y$7 y$404)))
(assert (= y$575 (not y$578)))
(assert (= y$604 (and y$516 y$526 y$510)))
(assert (= y$604 (not y$606)))
(assert (= (= y$n7s4 y$v.total_op) y$414))
(assert (= y$603 (and y$4 y$7 y$414)))
(assert (= y$603 (not y$605)))
(assert (= y$624 (and y$516 y$487 y$517)))
(assert (= y$624 (not y$626)))
(assert (= y$395 (Extract_1_3_3_4 y$v.total_op)))
(assert (= y$623 (and y$2 y$7 y$395)))
(assert (= y$623 (not y$625)))
(assert (= y$712 (and y$2 y$7 y$414)))
(assert (= y$712 (not y$714)))
(assert (= y$711 (and y$516 y$510 y$517)))
(assert (= y$711 (not y$713)))
(assert (= (not (= y$n0s2 y$v.l10)) y$418))
(assert (= y$758 (not (= y$n1s2 y$v.l10))))
(assert (= y$759 (not (= y$n2s2 y$v.l10))))
(assert (= y$760 (not (= y$n3s2 y$v.l10))))
(assert (= y$761 (and y$418 y$758 y$759 y$760)))
(assert (= y$761 (not y$763)))
(assert (= y$734 (not (= y$n1s2 y$v.l10$next))))
(assert (= y$735 (not (= y$n2s2 y$v.l10$next))))
(assert (= y$736 (not (= y$n3s2 y$v.l10$next))))
(assert (= y$757 (and y$502 y$734 y$735 y$736)))
(assert (= y$757 (not y$762)))
(assert (= y$w$9$next_op (Concat_2_1_1 y$v.DIME$next false)))
(assert (= y$790 (= y$deposit$next y$w$9$next_op)))
(assert (= y$701 (not (= y$n1s2 y$deposit$next))))
(assert (= y$791 (and y$v.DIME$next y$790 y$701)))
(assert (= y$791 (not y$793)))
(assert (= y$682 (not (= y$n1s2 y$deposit))))
(assert (= y$788 (and y$v.DIME y$183 y$682)))
(assert (= y$788 (not y$792)))
(assert (= y$s$50$next_op (Add_2_2_2 y$v.l10$next y$n1s2)))
(assert (= y$778 (= y$n3s2 y$s$50$next_op)))
(assert (= y$813 (and y$517 y$778)))
(assert (= y$813 (not y$815)))
(assert (= y$777 (= y$n3s2 y$s$50_op)))
(assert (= y$812 (and y$2 y$777)))
(assert (= y$812 (not y$814)))
(assert (= (not (= y$n3s2 y$s$50_op)) y$740))
(assert (= (= y$n2s2 y$v.l10) y$767))
(assert (= y$830 (and y$740 y$767)))
(assert (= y$830 (not y$832)))
(assert (= (not (= y$n3s2 y$s$50$next_op)) y$750))
(assert (= (= y$n2s2 y$v.l10$next) y$773))
(assert (= y$829 (and y$750 y$773)))
(assert (= y$829 (not y$831)))
(assert (= y$824 (= y$n2s2 y$s$50$next_op)))
(assert (= y$849 (and y$517 y$824)))
(assert (= y$849 (not y$851)))
(assert (= y$823 (= y$n2s2 y$s$50_op)))
(assert (= y$848 (and y$2 y$823)))
(assert (= y$848 (not y$850)))
(assert (= (= y$n1s2 y$v.l10) y$765))
(assert (= (not (= y$n2s2 y$s$50_op)) y$739))
(assert (= y$865 (and y$765 y$739)))
(assert (= y$865 (not y$867)))
(assert (= (= y$n1s2 y$v.l10$next) y$771))
(assert (= (not (= y$n2s2 y$s$50$next_op)) y$749))
(assert (= y$864 (and y$771 y$749)))
(assert (= y$864 (not y$866)))
(assert (= y$398 (Extract_2_2_1_4 y$v.total_op)))
(assert (= (not (= y$n0s2 y$398)) y$556))
(assert (= y$881 (and y$4 y$395 y$765 y$556)))
(assert (= y$881 (not y$883)))
(assert (= (not (= y$n0s2 y$490)) y$731))
(assert (= y$880 (and y$526 y$487 y$771 y$731)))
(assert (= y$880 (not y$882)))
(assert (= y$903 (and y$2 y$4 y$7 y$9 y$12 y$14 y$16 y$579 y$578 y$606 y$605 y$626 y$625 y$393 y$552 y$476 y$714 y$713 y$763 y$762 y$793 y$792 y$815 y$814 y$832 y$831 y$851 y$850 y$867 y$866 y$883 y$882)))
(assert y$903)
(check-sat)
(exit)
